CPXPARAM_Read_DataCheck                          1
Found incumbent of value 0.000000 after 0.00 sec. (1.31 ticks)
Tried aggregator 1 time.
MIP Presolve eliminated 1 rows and 0 columns.
MIP Presolve modified 1 coefficients.
Reduced MIP has 10015 rows, 50005 columns, and 240015 nonzeros.
Reduced MIP has 50005 binaries, 0 generals, 0 SOSs, and 0 indicators.
Presolve time = 0.11 sec. (87.73 ticks)
Probing time = 0.05 sec. (14.44 ticks)
Tried aggregator 1 time.
Reduced MIP has 10015 rows, 50005 columns, and 240015 nonzeros.
Reduced MIP has 50005 binaries, 0 generals, 0 SOSs, and 0 indicators.
Presolve time = 0.16 sec. (102.61 ticks)
Probing time = 0.03 sec. (14.44 ticks)
Clique table members: 50000.
MIP emphasis: balance optimality and feasibility.
MIP search method: dynamic search.
Parallel mode: deterministic, using up to 4 threads.
Root relaxation solution time = 0.75 sec. (817.61 ticks)

        Nodes                                         Cuts/
   Node  Left     Objective  IInf  Best Integer    Best Bound    ItCnt     Gap

*     0+    0                            0.0000   309953.0000              --- 
      0     0   162893.1935     7        0.0000   162893.1935       23     --- 
*     0+    0                        85040.0000   162893.1935            91.55%
      0     0        cutoff          85040.0000    85040.0000    14685    0.00%
Elapsed time = 45.16 sec. (25730.77 ticks, tree = 0.01 MB, solutions = 2)

Clique cuts applied:  2591
Implied bound cuts applied:  1
Mixed integer rounding cuts applied:  8
Gomory fractional cuts applied:  3

Root node processing (before b&c):
  Real time             =   45.17 sec. (25734.20 ticks)
Parallel b&c, 4 threads:
  Real time             =    0.00 sec. (0.00 ticks)
  Sync time (average)   =    0.00 sec.
  Wait time (average)   =    0.00 sec.
                          ------------
Total (root+branch&cut) =   45.17 sec. (25734.20 ticks)
